# Solution for model r3_t18_m2_1 Batch Number: 2
# Finished Task: 18 / 18
# Makespan: 501.0, Total Distance: 506.0, Total Time: 0.9189
# R O S F Batch
0 0 17 0.0 0.0 -1
1 1 13 0.0 0.0 -1
2 2 4 0.0 0.0 -1
3 2 8 419.0 446.0 1
4 2 7 138.0 173.0 0
5 1 20 198.0 221.0 0
6 0 16 388.0 422.0 1
7 2 9 173.0 211.0 0
8 2 -1 465.0 501.0 1
9 2 18 255.0 280.0 0
10 0 19 295.0 316.0 1
11 1 -1 380.0 419.0 1
12 1 5 128.0 165.0 0
13 1 12 50.0 85.0 0
14 1 11 316.0 350.0 1
15 0 10 257.0 277.0 0
16 0 -1 461.0 500.0 1
17 0 15 173.0 197.0 0
18 2 3 345.0 383.0 1
19 0 6 359.0 380.0 1
20 1 14 259.0 280.0 0
